40	1
0 56
0 54
0 51
0 53
0 45
0 52
0 41
0 43
0 50
0 54
0 53
0 50
0 53
0 56
0 57
0 50
0 50
0 42
0 47
0 59
0 49
0 48
0 47
0 50
0 59
0 54
0 41
0 48
0 44
0 58
0 49
0 43
0 47
0 50
0 51
0 51
0 57
0 54
0 41
0 52
